p cnf 80 74
-3  -1  -2  0
-5  -3  -4  0
-7  5  6  0
-11  -9  10  0
19  17  18  0
-21  19  -20  0
-23  21  -22  0
31  -29  30  0
35  33  34  0
37  35  -36  0
-43  -41  42  0
-49  47  48  0
-51  49  50  0
53  51  52  0
55  53  54  0
63  -61  -62  0
-65  -63  -64  0
71  -69  -70  0
-73  71  -72  0
77  75  76  0
6  -5  3  0
-6  -3  4  0
-8  5  6  0
10  9  7  0
12  9  -10  0
-14  13  12  0
-14  13  11  0
-16  -15  14  0
-16  15  -13  0
-18  17  -16  0
-20  -19  -18  0
22  -21  19  0
22  -19  -20  0
-24  -23  -22  0
-24  -23  21  0
26  25  -24  0
-28  27  -25  0
-32  -31  30  0
34  -33  -31  0
34  31  -32  0
36  -35  -34  0
-36  -33  34  0
-38  -37  36  0
38  -37  35  0
40  -39  38  0
-40  -37  38  0
44  -43  42  0
46  45  43  0
46  43  -44  0
48  -47  -46  0
50  49  -48  0
56  -55  54  0
-56  -53  54  0
-58  -57  -55  0
-62  61  60  0
62  59  60  0
-64  -63  61  0
-64  -61  62  0
-66  -65  -64  0
-68  -67  66  0
-68  -65  -66  0
-70  69  -68  0
-70  -69  67  0
70  67  68  0
72  71  -69  0
72  69  -70  0
-74  73  -72  0
-74  73  71  0
-76  75  73  0
78  -77  76  0
78  77  75  0
78  -75  76  0
-80  -79  77  0
-80  -77  78  0
